%%%mzn-stat: initTime=0.004797344
%%%mzn-stat: objective=305
%%%mzn-stat: nodes=3750
%%%mzn-stat: restarts=0
%%%mzn-stat: peakDepth=169
%%%mzn-stat: solveTime=0.222078381
%%%mzn-stat: variables=466
%%%mzn-stat: propagators=293
%%%mzn-stat: failures=1215
%%%mzn-stat: propagations=62694
%%%mzn-stat: nogoods=1215
%%%mzn-stat: AverageConflictSize=8.91769547325103
%%%mzn-stat: NumUnitNogoodsLearned=304
%%%mzn-stat: AverageLearnedNogoodLength=10.4559670781893
%%%mzn-stat: AverageBacktrackAmount=0
%%%mzn-stat: AverageLbd=4.939094650205761
%%%mzn-stat-end
maxleg = 305;
succ = array1d(1..50,[47, 12, 17, 11, 24, 38, 48, 31, 29, 34, 28, 27, 50, 16, 33, 49, 45, 13, 35, 43, 42, 25, 30, 7, 6, 44, 36, 14, 41, 22, 2, 4, 26, 19, 40, 10, 5, 20, 37, 3, 39, 8, 18, 9, 32, 15, 23, 21, 1, 46]);
% time elapsed: 1.88 s
----------
==========
% time elapsed: 1.88 s
%%%mzn-stat: initTime=0.004797344
%%%mzn-stat: objective=305
%%%mzn-stat: nodes=3750
%%%mzn-stat: restarts=0
%%%mzn-stat: peakDepth=169
%%%mzn-stat: solveTime=0.222082746
%%%mzn-stat: variables=466
%%%mzn-stat: propagators=293
%%%mzn-stat: failures=1215
%%%mzn-stat: propagations=62694
%%%mzn-stat: nogoods=1215
%%%mzn-stat: AverageConflictSize=8.91769547325103
%%%mzn-stat: NumUnitNogoodsLearned=304
%%%mzn-stat: AverageLearnedNogoodLength=10.4559670781893
%%%mzn-stat: AverageBacktrackAmount=0
%%%mzn-stat: AverageLbd=4.939094650205761
%%%mzn-stat-end
